Results/Experiment 1 Results/New Benchmark/RES_20/output_p1_0.25_p2_0.00_n_20_19.txt
solutions: 0 nodes: 0  modelTime: 132  solveTime: 9  totalTime: 142  modelSize: 7358  readTime: 1 matchingSize: 0
