Results/Experiment 2 Results/New Benchmark/output_p1_0.25_p2_0.00_n_20_19.lp
clingo version 5.4.0
Reading from tempSRTISolver.lp ...
Solving...
Answer: 1
matched(2,3) matched(5,4) matched(6,7) matched(1,8) matched(10,11) matched(9,12) matched(12,9) matched(17,16) matched(19,18) matched(18,19) matched(13,20) matched(20,13) matched(7,6) matched(3,2) matched(4,5) matched(8,1) matched(11,10) matched(15,14) matched(14,15) matched(16,17)
Optimization: 120
Answer: 2
matched(5,3) matched(2,4) matched(6,7) matched(1,8) matched(10,11) matched(9,12) matched(12,9) matched(17,16) matched(19,18) matched(18,19) matched(13,20) matched(20,13) matched(7,6) matched(4,2) matched(3,5) matched(8,1) matched(11,10) matched(15,14) matched(14,15) matched(16,17)
Optimization: 118
Answer: 3
matched(5,3) matched(2,4) matched(6,7) matched(1,8) matched(10,11) matched(9,12) matched(12,9) matched(13,16) matched(14,18) matched(15,19) matched(17,20) matched(16,13) matched(7,6) matched(4,2) matched(3,5) matched(8,1) matched(11,10) matched(18,14) matched(19,15) matched(20,17)
Optimization: 116
Answer: 4
matched(2,3) matched(6,4) matched(1,7) matched(5,8) matched(10,11) matched(9,12) matched(12,9) matched(18,16) matched(16,18) matched(13,19) matched(17,20) matched(19,13) matched(4,6) matched(3,2) matched(8,5) matched(7,1) matched(11,10) matched(15,14) matched(14,15) matched(20,17)
Optimization: 112
Answer: 5
matched(5,3) matched(2,4) matched(6,7) matched(1,8) matched(10,11) matched(9,12) matched(12,9) matched(18,16) matched(16,18) matched(13,19) matched(17,20) matched(19,13) matched(7,6) matched(4,2) matched(3,5) matched(8,1) matched(11,10) matched(15,14) matched(14,15) matched(20,17)
Optimization: 109
OPTIMUM FOUND

Models       : 5
  Optimum    : yes
Optimization : 109
Calls        : 1
Time         : 0.040s (Solving: 0.00s 1st Model: 0.00s Unsat: 0.00s)
CPU Time     : 0.036s
